data;


param d:= 100;
param r:=5;
param p:=0.820000;
param M:=1000;
param U:=
         1         1       -2.328013e-02
         2         1        1.677593e+00
         3         1       -7.208749e-01
         4         1        1.414195e+00
         5         1       -6.192854e-01
         6         1       -5.472274e-01
         7         1        1.076464e+00
         8         1       -5.478692e-01
         9         1        1.720859e-01
        10         1       -5.314351e-01
        11         1       -2.782124e-01
        12         1       -4.119099e-01
        13         1       -4.494850e-01
        14         1        6.584007e-02
        15         1       -1.159386e+00
        16         1        1.232773e+00
        17         1        3.422145e-01
        18         1        7.098932e-01
        19         1        6.112570e-01
        20         1        7.141758e-02
        21         1        5.105537e-01
        22         1       -8.483174e-01
        23         1        1.651117e-01
        24         1       -5.245161e-01
        25         1        3.187127e-01
        26         1        5.587627e-01
        27         1       -3.313816e-01
        28         1       -1.188071e+00
        29         1       -2.034746e-01
        30         1       -9.300780e-02
        31         1        3.229022e-01
        32         1       -2.349350e+00
        33         1       -1.302647e+00
        34         1       -2.099010e-01
        35         1       -9.642560e-01
        36         1        1.324590e+00
        37         1       -1.588851e+00
        38         1        1.184876e+00
        39         1        2.562003e+00
        40         1       -1.078809e-01
        41         1        2.523841e-01
        42         1        2.378602e-01
        43         1       -6.375006e-01
        44         1       -4.564929e-01
        45         1       -1.297136e+00
        46         1       -3.727401e-01
        47         1       -6.319104e-02
        48         1       -7.146712e-02
        49         1        8.262704e-01
        50         1       -3.620178e-01
        51         1        6.214362e-01
        52         1       -3.112038e-01
        53         1        4.241451e-01
        54         1       -9.061789e-01
        55         1        7.642181e-02
        56         1        1.214737e+00
        57         1        1.688442e+00
        58         1        8.403521e-01
        59         1       -1.404538e+00
        60         1       -4.018997e-01
        61         1       -1.779389e+00
        62         1       -4.934344e-01
        63         1        1.299096e-01
        64         1       -7.398967e-01
        65         1       -6.303218e-01
        66         1       -1.129936e+00
        67         1       -1.307517e+00
        68         1       -7.503427e-02
        69         1       -6.920898e-01
        70         1       -1.221395e+00
        71         1       -1.542859e-01
        72         1       -1.310582e+00
        73         1       -1.343748e-01
        74         1        2.141098e+00
        75         1        2.078133e-01
        76         1        1.272737e-01
        77         1        1.482022e+00
        78         1        7.430639e-01
        79         1        7.961946e-01
        80         1       -1.438526e+00
        81         1        1.238253e-01
        82         1        1.883532e+00
        83         1       -8.950395e-01
        84         1       -2.048987e-01
        85         1       -1.965440e+00
        86         1       -8.767798e-01
        87         1       -2.187598e+00
        88         1        1.324202e+00
        89         1       -1.245736e+00
        90         1        1.015810e+00
        91         1       -8.446836e-02
        92         1       -3.638641e-01
        93         1       -6.571102e-01
        94         1       -2.619021e+00
        95         1        7.521002e-01
        96         1        1.054532e+00
        97         1        2.178202e-01
        98         1        9.136932e-01
        99         1        5.278440e-02
       100         1        6.688467e-02
         1         2        1.054637e+00
         2         2        1.047213e+00
         3         2        9.241798e-01
         4         2        2.075187e+00
         5         2        2.199421e-01
         6         2        9.592479e-01
         7         2        3.209530e-01
         8         2        1.249932e+00
         9         2       -1.136209e+00
        10         2       -1.809357e+00
        11         2        6.856804e-01
        12         2       -4.669782e-01
        13         2       -1.876068e+00
        14         2       -2.261797e-01
        15         2       -7.278935e-01
        16         2       -8.549352e-01
        17         2       -4.795538e-01
        18         2        4.482632e-01
        19         2        1.310276e+00
        20         2        3.034536e-01
        21         2        2.765756e-01
        22         2       -2.770570e-01
        23         2        1.593872e+00
        24         2       -2.029072e-01
        25         2       -1.614353e-01
        26         2        2.601972e+00
        27         2        9.159850e-01
        28         2       -2.390707e-01
        29         2        2.148957e-01
        30         2        6.556394e-01
        31         2        1.679611e-01
        32         2        1.037149e+00
        33         2        1.176750e+00
        34         2        5.196139e-01
        35         2        1.413558e+00
        36         2       -1.979018e-01
        37         2        2.109623e-01
        38         2        3.103535e-01
        39         2        8.611756e-01
        40         2        2.398543e+00
        41         2       -2.802590e-01
        42         2       -5.079621e-01
        43         2       -3.823907e-02
        44         2       -3.975037e-01
        45         2       -6.254575e-01
        46         2        1.163881e+00
        47         2        2.050799e+00
        48         2       -1.714961e+00
        49         2        2.914536e-01
        50         2        1.589084e+00
        51         2        1.623347e+00
        52         2        4.846287e-01
        53         2        3.823700e-01
        54         2        4.257213e-01
        55         2       -8.021659e-01
        56         2       -5.528815e-01
        57         2        2.344558e-01
        58         2        1.176284e-01
        59         2        3.567470e-01
        60         2        6.231831e-01
        61         2        1.493597e+00
        62         2       -1.384011e+00
        63         2       -1.749868e+00
        64         2        1.498876e+00
        65         2        3.200140e-01
        66         2       -1.636126e-01
        67         2       -1.378906e+00
        68         2       -8.183006e-01
        69         2       -1.907652e-01
        70         2       -9.263815e-01
        71         2       -8.630584e-01
        72         2       -6.270885e-01
        73         2        5.513625e-01
        74         2        3.393068e-01
        75         2        1.151846e-01
        76         2       -4.756483e-01
        77         2       -7.955808e-01
        78         2       -1.474780e+00
        79         2        1.294695e+00
        80         2        1.659691e-01
        81         2       -1.594303e+00
        82         2        8.090605e-01
        83         2       -1.145849e+00
        84         2       -6.507185e-01
        85         2       -6.831043e-01
        86         2        2.126015e+00
        87         2        4.963602e-01
        88         2       -5.073835e-01
        89         2       -2.772156e-01
        90         2       -3.599410e-02
        91         2        3.260108e-01
        92         2       -5.803400e-01
        93         2       -1.475833e-01
        94         2       -8.850281e-02
        95         2        1.275084e+00
        96         2        4.022812e-01
        97         2       -5.727988e-01
        98         2       -1.101114e+00
        99         2       -7.691481e-01
       100         2       -5.501693e-01
         1         3        1.807933e+00
         2         3       -1.214684e-01
         3         3        5.981360e-01
         4         3       -7.455412e-01
         5         3        9.070033e-01
         6         3       -8.008778e-01
         7         3       -2.010739e-01
         8         3       -5.393774e-01
         9         3        4.812203e-01
        10         3        4.255321e-01
        11         3        2.719987e-01
        12         3       -6.431053e-02
        13         3       -1.358670e-01
        14         3       -5.819928e-01
        15         3       -1.512082e+00
        16         3        3.783217e-01
        17         3       -6.908455e-01
        18         3       -1.229175e+00
        19         3        9.605412e-01
        20         3        2.994015e-01
        21         3       -3.366311e-01
        22         3        3.621840e-01
        23         3        4.796050e-01
        24         3        2.781222e-01
        25         3       -6.454659e-01
        26         3       -1.392339e+00
        27         3        2.630819e-01
        28         3        1.392216e-01
        29         3        5.917431e-01
        30         3       -3.049387e-01
        31         3       -2.303499e+00
        32         3       -1.106582e+00
        33         3        9.901604e-01
        34         3       -8.107128e-01
        35         3       -9.996707e-01
        36         3       -7.567704e-01
        37         3        1.023990e+00
        38         3        1.232694e+00
        39         3        1.299583e+00
        40         3       -1.491197e+00
        41         3       -9.560796e-01
        42         3       -1.610095e+00
        43         3        9.465668e-01
        44         3        2.394122e+00
        45         3        4.624774e-02
        46         3       -3.958282e-01
        47         3        1.699763e+00
        48         3        1.483051e+00
        49         3       -1.344066e+00
        50         3       -7.499171e-01
        51         3       -1.834301e-01
        52         3        5.932668e-01
        53         3        1.094779e+00
        54         3       -6.879359e-01
        55         3        2.417415e+00
        56         3       -5.984329e-01
        57         3       -3.760327e-01
        58         3        2.234361e+00
        59         3       -1.251978e+00
        60         3        5.115332e-01
        61         3       -2.656061e-01
        62         3        7.218316e-01
        63         3       -1.097838e+00
        64         3        1.313121e-01
        65         3       -9.515197e-01
        66         3       -5.054570e-01
        67         3       -7.409464e-01
        68         3       -3.676238e-01
        69         3       -3.465397e+00
        70         3       -1.440570e+00
        71         3        4.729612e-01
        72         3       -4.358007e-02
        73         3        8.575671e-01
        74         3       -9.115363e-01
        75         3       -2.097689e-01
        76         3       -7.766644e-01
        77         3        1.253960e+00
        78         3        2.290457e-01
        79         3       -1.518995e-01
        80         3       -9.061844e-01
        81         3        1.550733e-01
        82         3        2.702910e-01
        83         3        5.864458e-01
        84         3        1.414392e+00
        85         3        9.769500e-01
        86         3       -1.213690e+00
        87         3        7.812691e-01
        88         3       -8.889170e-01
        89         3        1.879244e-01
        90         3       -2.032374e+00
        91         3        1.733590e+00
        92         3       -1.070518e+00
        93         3        8.415266e-01
        94         3       -1.037037e+00
        95         3        6.097375e-01
        96         3        2.071638e+00
        97         3        5.165685e-01
        98         3        2.417119e+00
        99         3        1.145978e+00
       100         3       -1.957771e+00
         1         4       -1.225401e-01
         2         4        8.806527e-01
         3         4       -4.574210e-01
         4         4       -4.106136e-01
         5         4       -3.285724e-01
         6         4        1.115007e+00
         7         4       -1.117728e+00
         8         4        3.972285e-01
         9         4       -9.944911e-01
        10         4       -5.477601e-01
        11         4        1.209498e+00
        12         4        1.470557e+00
        13         4       -1.143016e+00
        14         4       -4.473305e-01
        15         4        1.312513e+00
        16         4       -2.778117e-01
        17         4       -9.228357e-01
        18         4        3.230642e-01
        19         4       -4.682367e-01
        20         4        3.199323e-01
        21         4        4.345276e-01
        22         4       -4.640836e-01
        23         4        7.078506e-01
        24         4       -1.691589e+00
        25         4        3.289692e-01
        26         4       -1.226080e+00
        27         4       -5.362944e-01
        28         4        4.766958e-01
        29         4       -2.491402e-01
        30         4       -4.663531e-01
        31         4        1.571112e-01
        32         4        9.920032e-01
        33         4       -7.066680e-01
        34         4       -2.073066e+00
        35         4        7.739849e-01
        36         4       -1.644428e+00
        37         4       -1.377585e-01
        38         4       -2.816139e-01
        39         4       -8.730309e-01
        40         4       -5.065976e-01
        41         4       -4.289473e-01
        42         4        9.819798e-01
        43         4        2.106165e+00
        44         4       -1.020871e+00
        45         4        9.663455e-02
        46         4        2.330869e-01
        47         4       -7.436240e-01
        48         4       -5.100467e-01
        49         4        2.702457e+00
        50         4        7.974966e-01
        51         4        1.387901e+00
        52         4       -7.119051e-01
        53         4       -4.798532e-01
        54         4        2.367420e+00
        55         4        2.200299e-01
        56         4        1.270453e+00
        57         4       -1.208161e+00
        58         4       -1.865154e+00
        59         4       -1.995393e+00
        60         4       -7.781898e-01
        61         4        7.805702e-01
        62         4       -6.665114e-02
        63         4       -9.783953e-01
        64         4       -2.280868e-01
        65         4        5.659621e-01
        66         4        1.497473e+00
        67         4        2.886718e-02
        68         4        1.010989e+00
        69         4        2.386802e-01
        70         4       -2.582955e+00
        71         4        1.217602e+00
        72         4       -8.160670e-01
        73         4        3.634950e-01
        74         4        9.742198e-01
        75         4       -7.842445e-01
        76         4        6.655808e-01
        77         4       -9.060292e-01
        78         4        1.641820e-01
        79         4       -9.202541e-01
        80         4        1.171603e+00
        81         4        3.742100e-03
        82         4        3.457892e-01
        83         4        3.817620e-01
        84         4        1.084905e+00
        85         4       -2.237287e+00
        86         4       -3.887127e-01
        87         4       -1.801590e+00
        88         4        3.840768e-01
        89         4       -4.767845e-01
        90         4        6.863689e-01
        91         4       -7.905184e-01
        92         4       -1.629666e+00
        93         4       -2.749537e-01
        94         4        2.315632e+00
        95         4       -5.850382e-01
        96         4       -4.899153e-01
        97         4        4.283147e-01
        98         4        5.834233e-01
        99         4        3.837914e-01
       100         4        4.659877e-01
         1         5       -1.625206e-01
         2         5        4.003360e-01
         3         5        7.512509e-01
         4         5        4.471106e-01
         5         5        1.718653e+00
         6         5       -1.554414e+00
         7         5       -3.325345e-02
         8         5        2.458972e-01
         9         5       -2.454404e-01
        10         5        7.740540e-01
        11         5        9.026380e-02
        12         5       -8.022966e-01
        13         5        2.920087e+00
        14         5       -1.207940e+00
        15         5       -5.374174e-01
        16         5        9.378188e-01
        17         5       -5.692134e-01
        18         5        2.028614e+00
        19         5        1.903969e-01
        20         5       -9.620201e-01
        21         5        5.557893e-01
        22         5        2.251442e+00
        23         5        4.695643e-01
        24         5        8.880931e-01
        25         5        2.560339e-01
        26         5       -2.474241e+00
        27         5       -2.773552e-01
        28         5       -2.541829e+00
        29         5        3.704286e-01
        30         5       -5.013680e-01
        31         5        5.022547e-01
        32         5       -1.049411e+00
        33         5       -1.019759e+00
        34         5        2.522615e+00
        35         5        2.029331e+00
        36         5        4.526796e-01
        37         5       -6.539791e-01
        38         5       -2.181362e-02
        39         5       -5.472921e-01
        40         5       -3.490404e-01
        41         5       -1.032483e+00
        42         5        1.936984e+00
        43         5       -1.075546e+00
        44         5        1.452540e+00
        45         5       -1.171047e+00
        46         5        1.058821e+00
        47         5       -9.430284e-01
        48         5        1.229133e+00
        49         5       -3.881964e-01
        50         5        2.664693e-01
        51         5        2.583551e-02
        52         5        2.928839e-01
        53         5        6.359111e-01
        54         5       -1.040717e+00
        55         5       -1.005824e+00
        56         5        4.849767e-01
        57         5        8.392528e-01
        58         5        6.639840e-01
        59         5        7.003943e-01
        60         5        1.069983e+00
        61         5       -5.567510e-01
        62         5        5.116258e-02
        63         5        8.597617e-01
        64         5        2.132262e-02
        65         5       -7.624834e-01
        66         5       -1.355421e+00
        67         5        1.109189e+00
        68         5        1.156164e+00
        69         5        1.870453e+00
        70         5        2.451037e+00
        71         5       -8.558790e-01
        72         5        9.418110e-01
        73         5       -8.426264e-02
        74         5       -5.889452e-01
        75         5        7.654345e-02
        76         5        1.072676e+00
        77         5       -4.816063e-01
        78         5       -3.049405e-01
        79         5       -2.488276e-01
        80         5       -2.725238e+00
        81         5       -2.823346e+00
        82         5       -7.744374e-02
        83         5        1.017925e+00
        84         5       -1.085428e+00
        85         5       -4.264233e-01
        86         5        3.373970e-01
        87         5       -1.195347e+00
        88         5        3.259800e-01
        89         5        6.976848e-01
        90         5       -2.011039e+00
        91         5       -2.258212e-01
        92         5        1.005779e+00
        93         5       -2.341945e-01
        94         5        1.753589e+00
        95         5       -2.793313e-01
        96         5        6.725849e-01
        97         5       -6.701904e-02
        98         5        1.926042e-01
        99         5        3.261180e-01
       100         5        5.639739e-01
;

param theta:=
    1       -2.647542e-01
    2       -3.618335e-01
    3       -1.798928e-01
    4        9.603775e-01
    5        6.486266e-01
;
param X_true:=
    1       -9.234259e-01
    2        3.040921e-01
    3       -2.047774e-01
    4       -1.095006e+00
    5        7.204117e-01
    6        4.351130e-03
    7       -1.459666e+00
    8        3.317774e-01
    9       -8.350725e-01
   10        6.958380e-01
   11        9.966328e-01
   12        1.182464e+00
   13        1.618929e+00
   14       -1.044954e+00
   15        1.753340e+00
   16        2.562615e-01
   17       -1.047214e+00
   18        1.498521e+00
   19       -1.135699e+00
   20       -4.987708e-01
   21        6.039439e-01
   22        1.273765e+00
   23        2.780951e-01
   24       -8.850479e-01
   25        5.718230e-01
   26       -3.622737e+00
   27       -9.874296e-01
   28       -8.160996e-01
   29       -1.280314e-01
   30       -9.310884e-01
   31        7.459293e-01
   32        7.187497e-01
   33       -1.600114e+00
   34       -3.386227e-01
   35        1.983090e+00
   36       -1.427240e+00
   37       -3.971164e-01
   38       -9.332645e-01
   39       -2.417501e+00
   40       -1.284520e+00
   41       -8.761268e-01
   42        2.610115e+00
   43        1.339281e+00
   44       -2.041631e-01
   45       -1.059885e-01
   46        6.591386e-01
   47       -2.357724e+00
   48        6.785789e-01
   49        2.262342e+00
   50        5.951575e-01
   51        6.321149e-01
   52       -6.935741e-01
   53       -4.957136e-01
   54        1.808770e+00
   55       -6.054984e-01
   56        1.522254e+00
   57       -1.081169e+00
   58       -2.028221e+00
   59       -9.928395e-01
   60       -2.638445e-01
   61        3.669067e-01
   62        4.720162e-01
   63        4.146107e-01
   64       -5.748962e-01
   65        2.710457e-01
   66        1.006891e+00
   67        1.725659e+00
   68        2.103835e+00
   69        2.316480e+00
   70        2.727789e-02
   71        8.815593e-01
   72        4.090673e-01
   73       -2.491811e-02
   74        2.900395e-02
   75       -7.617051e-01
   76        1.614030e+00
   77       -1.511872e+00
   78        2.552129e-01
   79       -1.694298e+00
   80       -1.579101e-01
   81       -1.312674e+00
   82       -5.582277e-01
   83        1.572640e+00
   84        3.714073e-01
   85       -1.833059e+00
   86       -4.735215e-01
   87       -2.246360e+00
   88        5.750746e-01
   89        3.906464e-01
   90       -5.365705e-01
   91       -1.312492e+00
   92       -4.140359e-01
   93       -3.389450e-01
   94        4.273376e+00
   95       -1.513094e+00
   96       -8.324343e-01
   97        4.253536e-01
   98        4.067375e-01
   99        6.391882e-01
  100        1.345904e+00
;
param X:=
    1        1.308297e+00
    2        3.040921e-01
    3       -2.654767e+00
    4        1.329306e+00
    5       -4.885247e-01
    6       -3.395230e-01
    7       -1.459666e+00
    8        6.390059e-02
    9       -1.443719e+00
   10        4.734089e-01
   11       -2.909772e-01
   12        1.021911e+00
   13        1.686511e-01
   14       -1.044954e+00
   15        1.306464e+00
   16       -1.635934e-01
   17        2.124926e-01
   18       -1.661883e-01
   19       -6.923525e-01
   20       -4.808457e-01
   21       -8.048516e-01
   22        1.277688e+00
   23        2.780951e-01
   24       -1.845607e-01
   25        8.336537e-02
   26       -1.069158e+00
   27       -2.844928e-02
   28       -1.172669e-01
   29        7.336570e-01
   30       -8.052142e-01
   31        7.459293e-01
   32       -1.907009e-01
   33        3.367289e-01
   34       -1.198801e+00
   35        5.144228e-01
   36        9.884695e-01
   37       -3.971164e-01
   38       -5.376309e-01
   39        3.610419e-01
   40       -3.537937e-02
   41       -1.370516e+00
   42        3.762708e-01
   43        2.184892e-01
   44       -3.275650e+00
   45        1.068155e+00
   46        2.508361e-01
   47        8.714446e-01
   48        8.551988e-01
   49       -2.223643e-01
   50       -1.650207e+00
   51        4.150238e-01
   52        1.315814e+00
   53       -5.216667e-01
   54        9.034094e-01
   55        1.280656e-01
   56        1.369831e+00
   57       -2.036489e+00
   58        3.599576e-01
   59       -2.357306e-01
   60        1.873113e-01
   61        3.669067e-01
   62       -1.748715e+00
   63        4.146107e-01
   64       -5.748962e-01
   65        2.398367e-02
   66       -5.802799e-02
   67        1.850826e-02
   68        2.103835e+00
   69        3.365701e-01
   70        2.727789e-02
   71        2.400788e-01
   72        4.090673e-01
   73       -1.167386e+00
   74        8.220602e-01
   75       -5.816474e-03
   76        1.916911e+00
   77       -1.511872e+00
   78       -1.061338e+00
   79        2.812283e-02
   80        6.100156e-01
   81       -1.312674e+00
   82       -5.582277e-01
   83        3.786229e-01
   84        3.714073e-01
   85        1.098594e+00
   86       -5.302652e-01
   87        3.733386e-01
   88       -7.343529e-01
   89        3.906464e-01
   90        6.598741e-01
   91        1.021025e+00
   92       -1.020740e+00
   93        2.877037e-01
   94        4.273376e+00
   95        2.602793e+00
   96       -9.914371e-01
   97       -7.624378e-01
   98        2.336507e+00
   99        1.824395e+00
  100       -3.308655e-01
;
param outliervec:=
    1    1
    2    0
    3    1
    4    1
    5    1
    6    1
    7    0
    8    1
    9    1
   10    1
   11    1
   12    1
   13    1
   14    0
   15    1
   16    1
   17    1
   18    1
   19    1
   20    1
   21    1
   22    1
   23    0
   24    1
   25    1
   26    1
   27    1
   28    1
   29    1
   30    1
   31    0
   32    1
   33    1
   34    1
   35    1
   36    1
   37    0
   38    1
   39    1
   40    1
   41    1
   42    1
   43    1
   44    1
   45    1
   46    1
   47    1
   48    1
   49    1
   50    1
   51    1
   52    1
   53    1
   54    1
   55    1
   56    1
   57    1
   58    1
   59    1
   60    1
   61    0
   62    1
   63    0
   64    0
   65    1
   66    1
   67    1
   68    0
   69    1
   70    0
   71    1
   72    0
   73    1
   74    1
   75    1
   76    1
   77    0
   78    1
   79    1
   80    1
   81    0
   82    0
   83    1
   84    0
   85    1
   86    1
   87    1
   88    1
   89    0
   90    1
   91    1
   92    1
   93    1
   94    0
   95    1
   96    1
   97    1
   98    1
   99    1
  100    1
;